####################################################################### 
# 
# This file contains crystal structure data downloaded from the 
# Cambridge Structural Database (CSD) hosted by the Cambridge 
# Crystallographic Data Centre (CCDC).
# 
# Full information about CCDC data access policies and citation 
# guidelines are available at http://www.ccdc.cam.ac.uk/access/V1 
# 
# Audit and citation data items may have been added by the CCDC. 
# Please retain this information to preserve the provenance of 
# this file and to allow appropriate attribution of the data. 
# 
#######################################################################

data_QQQCIG01
#This CIF has been generated from an entry in the Cambridge Structural Database
_database_code_depnum_ccdc_archive 'CCDC 1244265'
_database_code_CSD               QQQCIG01
_audit_creation_method           'Created from the CSD'
_audit_update_record             
;
2023-09-20 downloaded from the CCDC.
;
_database_code_NBS               555108
_chemical_name_common            Rubrene
_chemical_formula_moiety         'C42 H28'
_chemical_name_systematic        5,6,11,12-Tetraphenylnaphthacene
_chemical_absolute_configuration unk
_diffrn_ambient_temperature      295
_exptl_crystal_density_diffrn    1.269
#These two values have been output from a single CSD field.
_refine_ls_R_factor_gt           0.032
_refine_ls_wR_factor_gt          0.032
_diffrn_radiation_probe          x-ray
_symmetry_cell_setting           orthorhombic
_symmetry_space_group_name_H-M   'B b a m'
_symmetry_Int_Tables_number      64
_space_group_name_Hall           '-B 2 2ab'
loop_
_symmetry_equiv_pos_site_id
_symmetry_equiv_pos_as_xyz
1 x,y,z
2 -x,-y,z
3 1/2-x,1/2+y,z
4 1/2+x,1/2-y,z
5 1/2+x,y,1/2+z
6 1/2-x,-y,1/2+z
7 -x,1/2+y,1/2+z
8 x,1/2-y,1/2+z
9 -x,-y,-z
10 x,y,-z
11 1/2+x,1/2-y,-z
12 1/2-x,1/2+y,-z
13 1/2-x,-y,1/2-z
14 1/2+x,y,1/2-z
15 x,1/2-y,1/2-z
16 -x,1/2+y,1/2-z
_cell_length_a                   7.184(1)
_cell_length_b                   14.433(3)
_cell_length_c                   26.897(7)
_cell_angle_alpha                90
_cell_angle_beta                 90
_cell_angle_gamma                90
_cell_volume                     2788.86
_cell_formula_units_Z            4
loop_
_atom_site_label
_atom_site_type_symbol
_atom_site_fract_x
_atom_site_fract_y
_atom_site_fract_z
C1 C 0.00000 0.00000 0.02730
C2 C 0.14280 0.04900 0.05270
C3 C 0.29260 0.08750 0.02680
C4 C 0.44300 0.13360 0.05150
C5 C 0.58310 0.17450 0.02630
C6 C 0.13210 0.07260 0.10720
C7 C 0.02220 0.14640 0.12190
C8 C 0.02230 0.17640 0.17110
C9 C 0.13500 0.13350 0.20540
C10 C 0.24510 0.06100 0.19100
C11 C 0.24430 0.03010 0.14230
H1 H 0.43700 0.13800 0.08800
H2 H 0.68600 0.20700 0.04500
H3 H -0.05800 0.17800 0.09700
H4 H -0.06000 0.23200 0.18000
H5 H 0.13700 0.15600 0.24100
H6 H 0.33100 0.02900 0.21500
H7 H 0.32300 -0.02600 0.13200
C1H C 0.00000 0.00000 -0.02730
C2H C -0.14280 -0.04900 -0.05270
C3H C -0.29260 -0.08750 -0.02680
C3A C -0.29260 -0.08750 0.02680
C2A C -0.14280 -0.04900 0.05270
C3I C 0.29260 0.08750 -0.02680
C2I C 0.14280 0.04900 -0.05270
C6I C 0.13210 0.07260 -0.10720
C7I C 0.02220 0.14640 -0.12190
C8I C 0.02230 0.17640 -0.17110
C9I C 0.13500 0.13350 -0.20540
C10I C 0.24510 0.06100 -0.19100
C11I C 0.24430 0.03010 -0.14230
H7I H 0.32300 -0.02600 -0.13200
H6I H 0.33100 0.02900 -0.21500
H5I H 0.13700 0.15600 -0.24100
H4I H -0.06000 0.23200 -0.18000
H3I H -0.05800 0.17800 -0.09700
C4I C 0.44300 0.13360 -0.05150
C5I C 0.58310 0.17450 -0.02630
H2I H 0.68600 0.20700 -0.04500
H1I H 0.43700 0.13800 -0.08800
C6A C -0.13210 -0.07260 0.10720
C7A C -0.02220 -0.14640 0.12190
C8A C -0.02230 -0.17640 0.17110
C9A C -0.13500 -0.13350 0.20540
C10A C -0.24510 -0.06100 0.19100
C11A C -0.24430 -0.03010 0.14230
H7A H -0.32300 0.02600 0.13200
H6A H -0.33100 -0.02900 0.21500
H5A H -0.13700 -0.15600 0.24100
H4A H 0.06000 -0.23200 0.18000
H3A H 0.05800 -0.17800 0.09700
C4A C -0.44300 -0.13360 0.05150
C5A C -0.58310 -0.17450 0.02630
C5H C -0.58310 -0.17450 -0.02630
C4H C -0.44300 -0.13360 -0.05150
H1H H -0.43700 -0.13800 -0.08800
H2H H -0.68600 -0.20700 -0.04500
H2A H -0.68600 -0.20700 0.04500
H1A H -0.43700 -0.13800 0.08800
C6H C -0.13210 -0.07260 -0.10720
C7H C -0.02220 -0.14640 -0.12190
C8H C -0.02230 -0.17640 -0.17110
C9H C -0.13500 -0.13350 -0.20540
C10H C -0.24510 -0.06100 -0.19100
C11H C -0.24430 -0.03010 -0.14230
H7H H -0.32300 0.02600 -0.13200
H6H H -0.33100 -0.02900 -0.21500
H5H H -0.13700 -0.15600 -0.24100
H4H H 0.06000 -0.23200 -0.18000
H3H H 0.05800 -0.17800 -0.09700

#END
